n_tasks = 20;
duration = [ 2, 4, 9, 6, 5, 1, 9, 6, 3, 9, 5, 3, 3, 7, 3, 5, 1, 4, 3, 6 ];

n_res = 3;
L = [ 10, 18, 17 ];

req = [| 1, 1, 8, 1, 3, 10, 5, 5, 10, 2, 10, 5, 2, 5, 6, 8, 9, 2, 9, 5
       | 8, 1, 8, 7, 8, 5, 1, 1, 5, 7, 8, 8, 3, 5, 2, 7, 9, 8, 2, 9
       | 10, 5, 8, 7, 5, 2, 9, 9, 1, 7, 4, 7, 9, 6, 1, 4, 6, 6, 6, 10 |];
      
p = 23;     
pre =  [|1, 4
        |1, 7
        |1, 8
        |2, 5
        |2, 10
        |2, 18
        |3, 17
        |4, 6
        |4, 17
        |5, 9
        |6, 18
        |7, 12
        |7, 19
        |8, 12
        |8, 13
        |8, 15
        |9, 11
        |10, 17
        |11, 12
        |11, 13
        |11, 14
        |12, 16
        |15, 18

        |];